c A SAT instance generated from a 3-CNF formula that had 36 clauses and 12 variables
p cnf 12 36
11 9 5 0
-2 -6 4 0
11 8 -2 0
4 12 10 0
-2 -12 8 0
-12 9 10 0
-8 -4 11 0
-2 -9 -11 0
4 6 10 0
-11 5 2 0
-6 4 -2 0
-3 -7 9 0
10 -11 8 0
-9 12 -3 0
9 -12 1 0
11 6 4 0
8 -7 6 0
1 -9 -10 0
2 4 -3 0
-9 -8 -3 0
10 -2 12 0
-10 -9 -5 0
-9 -5 6 0
11 -9 -5 0
1 2 3 0
-3 9 1 0
8 -11 -5 0
-12 5 -3 0
2 -7 8 0
-12 -4 10 0
-10 -2 -9 0
-1 12 2 0
9 3 -4 0
-5 8 -7 0
-5 2 -12 0
-12 -3 -5 0
